p cnf 6 252
7 8 9 10 11 12 0
13 14 15 16 17 18 0
19 20 21 22 23 24 0
25 26 27 28 29 30 0
31 32 33 34 35 36 0
37 38 39 40 41 42 0
7 13 19 25 31 37 0
8 14 20 26 32 38 0
9 15 21 27 33 39 0
10 16 22 28 34 40 0
11 17 23 29 35 41 0
12 18 24 30 36 42 0
-7 -8 0
-7 -9 0
-7 -10 0
-7 -11 0
-7 -12 0
-8 -9 0
-8 -10 0
-8 -11 0
-8 -12 0
-9 -10 0
-9 -11 0
-9 -12 0
-10 -11 0
-10 -12 0
-11 -12 0
-13 -14 0
-13 -15 0
-13 -16 0
-13 -17 0
-13 -18 0
-14 -15 0
-14 -16 0
-14 -17 0
-14 -18 0
-15 -16 0
-15 -17 0
-15 -18 0
-16 -17 0
-16 -18 0
-17 -18 0
-19 -20 0
-19 -21 0
-19 -22 0
-19 -23 0
-19 -24 0
-20 -21 0
-20 -22 0
-20 -23 0
-20 -24 0
-21 -22 0
-21 -23 0
-21 -24 0
-22 -23 0
-22 -24 0
-23 -24 0
-25 -26 0
-25 -27 0
-25 -28 0
-25 -29 0
-25 -30 0
-26 -27 0
-26 -28 0
-26 -29 0
-26 -30 0
-27 -28 0
-27 -29 0
-27 -30 0
-28 -29 0
-28 -30 0
-29 -30 0
-31 -32 0
-31 -33 0
-31 -34 0
-31 -35 0
-31 -36 0
-32 -33 0
-32 -34 0
-32 -35 0
-32 -36 0
-33 -34 0
-33 -35 0
-33 -36 0
-34 -35 0
-34 -36 0
-35 -36 0
-37 -38 0
-37 -39 0
-37 -40 0
-37 -41 0
-37 -42 0
-38 -39 0
-38 -40 0
-38 -41 0
-38 -42 0
-39 -40 0
-39 -41 0
-39 -42 0
-40 -41 0
-40 -42 0
-41 -42 0
-7 -13 0
-7 -19 0
-7 -25 0
-7 -31 0
-7 -37 0
-13 -19 0
-13 -25 0
-13 -31 0
-13 -37 0
-19 -25 0
-19 -31 0
-19 -37 0
-25 -31 0
-25 -37 0
-31 -37 0
-8 -14 0
-8 -20 0
-8 -26 0
-8 -32 0
-8 -38 0
-14 -20 0
-14 -26 0
-14 -32 0
-14 -38 0
-20 -26 0
-20 -32 0
-20 -38 0
-26 -32 0
-26 -38 0
-32 -38 0
-9 -15 0
-9 -21 0
-9 -27 0
-9 -33 0
-9 -39 0
-15 -21 0
-15 -27 0
-15 -33 0
-15 -39 0
-21 -27 0
-21 -33 0
-21 -39 0
-27 -33 0
-27 -39 0
-33 -39 0
-10 -16 0
-10 -22 0
-10 -28 0
-10 -34 0
-10 -40 0
-16 -22 0
-16 -28 0
-16 -34 0
-16 -40 0
-22 -28 0
-22 -34 0
-22 -40 0
-28 -34 0
-28 -40 0
-34 -40 0
-11 -17 0
-11 -23 0
-11 -29 0
-11 -35 0
-11 -41 0
-17 -23 0
-17 -29 0
-17 -35 0
-17 -41 0
-23 -29 0
-23 -35 0
-23 -41 0
-29 -35 0
-29 -41 0
-35 -41 0
-12 -18 0
-12 -24 0
-12 -30 0
-12 -36 0
-12 -42 0
-18 -24 0
-18 -30 0
-18 -36 0
-18 -42 0
-24 -30 0
-24 -36 0
-24 -42 0
-30 -36 0
-30 -42 0
-36 -42 0
-44 1 0
-44 1 1 0
44 0 1 1 0
44 0 2 2 0
-45 0 0
-45 1 1 0
45 1 1 1 0
45 1 3 3 0
-46 0 0
-46 1 1 0
46 1 1 1 0
46 1 4 4 0
-47 0 0
-47 1 1 0
47 1 1 1 0
47 1 5 5 0
-48 1 0
-48 1 1 0
48 0 1 1 0
48 0 6 6 0
-51 1 0
-51 2 2 0
51 0 2 2 0
51 0 3 3 0
-52 0 0
-52 2 2 0
52 1 2 2 0
52 1 4 4 0
-53 1 0
-53 2 2 0
53 0 2 2 0
53 0 5 5 0
-54 0 0
-54 2 2 0
54 1 2 2 0
54 1 6 6 0
-57 1 0
-57 3 3 0
57 0 3 3 0
57 0 4 4 0
-58 0 0
-58 3 3 0
58 1 3 3 0
58 1 5 5 0
-59 1 0
-59 3 3 0
59 0 3 3 0
59 0 6 6 0
-62 1 0
-62 4 4 0
62 0 4 4 0
62 0 5 5 0
-63 0 0
-63 4 4 0
63 1 4 4 0
63 1 6 6 0
-66 1 0
-66 5 5 0
66 0 5 5 0
66 0 6 6 0
